\* NBA *\
Maximize
OBJ: 58.981 x0 + 36.521 x1 + 30.741 x10 + 24.821 x100 + 22.941 x101
 + 22.571 x102 + 0.001 x103 + 18.161 x104 + 0.001 x105 + 14.021 x106
 + 13.741 x107 + 15.281 x108 + 12.301 x109 + 23.721 x11 + 14.691 x110
 + 14.761 x111 + 0.001 x112 + 0.001 x113 + 0.001 x114 + 11.261 x115
 + 0.001 x116 + 10.451 x117 + 0.001 x118 + 0.631 x119 + 23.611 x12
 + 3.221 x120 + 0.001 x121 + 0.001 x122 + 2.271 x123 + 12.691 x124
 + 2.721 x125 + 0.001 x126 + 0.001 x127 + 44.041 x128 + 36.151 x129
 + 19.521 x13 + 22.131 x130 + 30.941 x131 + 31.891 x132 + 26.831 x133
 + 28.661 x134 + 16.901 x135 + 20.711 x136 + 17.671 x137 + 11.181 x138
 + 12.281 x139 + 18.801 x14 + 19.751 x140 + 0.001 x141 + 40.991 x142
 + 39.971 x143 + 36.521 x144 + 0.001 x145 + 31.961 x146 + 30.731 x147
 + 29.901 x148 + 18.131 x149 + 18.101 x15 + 20.551 x150 + 16.181 x151
 + 22.631 x152 + 0.001 x153 + 0.001 x154 + 21.011 x155 + 17.871 x156
 + 5.081 x157 + 13.331 x158 + 0.001 x159 + 8.391 x16 + 0.001 x160 + 4.201 x161
 + 10.661 x162 + 0.001 x163 + 0.001 x164 + 6.551 x165 + 0.001 x166
 + 2.111 x167 + 1.481 x168 + 4.111 x169 + 6.531 x17 + 37.231 x170
 + 31.191 x171 + 22.941 x172 + 22.911 x173 + 5.651 x174 + 25.201 x175
 + 18.491 x176 + 18.291 x177 + 16.171 x178 + 18.901 x179 + 3.121 x18
 + 17.411 x180 + 13.511 x181 + 12.161 x182 + 5.741 x183 + 9.351 x184
 + 27.501 x185 + 27.721 x186 + 0.001 x187 + 23.331 x188 + 20.731 x189
 + 6.581 x19 + 14.251 x190 + 21.021 x191 + 22.081 x192 + 15.971 x193
 + 18.321 x194 + 16.011 x195 + 11.871 x196 + 16.411 x197 + 16.471 x198
 + 2.451 x199 + 23.061 x2 + 53.391 x20 + 9.041 x200 + 1.741 x201 + 0.001 x202
 + 0.001 x203 + 1.221 x204 + 0.771 x205 + 4.281 x206 + 8.651 x207 + 0.001 x208
 + 51.891 x21 + 44.591 x22 + 44.751 x23 + 45.431 x24 + 33.211 x25 + 37.851 x26
 + 26.651 x27 + 31.261 x28 + 32.621 x29 + 18.971 x3 + 16.401 x30 + 28.831 x31
 + 0.001 x32 + 29.081 x33 + 26.361 x34 + 24.441 x35 + 24.381 x36 + 6.711 x37
 + 13.061 x38 + 18.261 x39 + 23.051 x4 + 2.251 x40 + 0.001 x41 + 13.041 x42
 + 12.771 x43 + 0.001 x44 + 0.801 x45 + 9.361 x46 + 0.001 x47 + 9.621 x48
 + 11.291 x49 + 17.771 x5 + 0.001 x50 + 6.441 x51 + 0.771 x52 + 0.001 x53
 + 8.191 x54 + 0.591 x55 + 0.001 x56 + 0.001 x57 + 0.001 x58 + 45.901 x59
 + 18.321 x6 + 28.751 x60 + 0.001 x61 + 23.681 x62 + 25.151 x63 + 0.001 x64
 + 24.011 x65 + 21.481 x66 + 19.151 x67 + 10.311 x68 + 14.311 x69 + 9.121 x7
 + 11.341 x70 + 0.001 x71 + 0.001 x72 + 0.001 x73 + 0.791 x74 + 2.111 x75
 + 4.321 x76 + 11.251 x77 + 0.001 x78 + 10.111 x79 + 11.521 x8 + 12.791 x80
 + 3.671 x81 + 2.091 x82 + 0.001 x83 + 0.001 x84 + 0.001 x85 + 8.581 x86
 + 0.001 x87 + 1.501 x88 + 4.671 x89 + 58.541 x9 + 47.321 x90 + 36.811 x91
 + 31.611 x92 + 34.671 x93 + 33.221 x94 + 28.951 x95 + 28.081 x96 + 28.911 x97
 + 23.271 x98 + 23.191 x99
Subject To
_C1: 11400 x0 + 7300 x1 + 6300 x10 + 4400 x100 + 4300 x101 + 4300 x102
 + 4000 x103 + 3900 x104 + 3800 x105 + 3600 x106 + 3500 x107 + 3400 x108
 + 3300 x109 + 4900 x11 + 3200 x110 + 3000 x111 + 3000 x112 + 3000 x113
 + 3000 x114 + 3000 x115 + 3000 x116 + 3000 x117 + 3000 x118 + 3000 x119
 + 4800 x12 + 3000 x120 + 3000 x121 + 3000 x122 + 3000 x123 + 3000 x124
 + 3000 x125 + 3000 x126 + 3000 x127 + 8300 x128 + 6900 x129 + 4000 x13
 + 6300 x130 + 6200 x131 + 6100 x132 + 5900 x133 + 5400 x134 + 4100 x135
 + 4100 x136 + 3900 x137 + 3700 x138 + 3700 x139 + 3900 x14 + 3500 x140
 + 3000 x141 + 7700 x142 + 7400 x143 + 6700 x144 + 5600 x145 + 5600 x146
 + 5400 x147 + 5400 x148 + 4400 x149 + 3600 x15 + 4300 x150 + 4300 x151
 + 4300 x152 + 4000 x153 + 4000 x154 + 3800 x155 + 3500 x156 + 3000 x157
 + 3000 x158 + 3000 x159 + 3000 x16 + 3000 x160 + 3000 x161 + 3000 x162
 + 3000 x163 + 3000 x164 + 3000 x165 + 3000 x166 + 3000 x167 + 3000 x168
 + 3000 x169 + 3000 x17 + 6600 x170 + 6400 x171 + 4800 x172 + 4600 x173
 + 4400 x174 + 4300 x175 + 3900 x176 + 3800 x177 + 3700 x178 + 3600 x179
 + 3000 x18 + 3400 x180 + 3300 x181 + 3200 x182 + 3200 x183 + 3000 x184
 + 5700 x185 + 5400 x186 + 4900 x187 + 4900 x188 + 4400 x189 + 3000 x19
 + 4400 x190 + 4200 x191 + 3700 x192 + 3600 x193 + 3500 x194 + 3200 x195
 + 3200 x196 + 3100 x197 + 3100 x198 + 3000 x199 + 5400 x2 + 9800 x20
 + 3000 x200 + 3000 x201 + 3000 x202 + 3000 x203 + 3000 x204 + 3000 x205
 + 3000 x206 + 3000 x207 + 3000 x208 + 9000 x21 + 8900 x22 + 8600 x23
 + 8100 x24 + 7500 x25 + 7200 x26 + 6300 x27 + 6200 x28 + 5700 x29 + 4100 x3
 + 5500 x30 + 5500 x31 + 5000 x32 + 4900 x33 + 4900 x34 + 4900 x35 + 4400 x36
 + 3700 x37 + 3700 x38 + 3600 x39 + 4000 x4 + 3500 x40 + 3500 x41 + 3400 x42
 + 3300 x43 + 3000 x44 + 3000 x45 + 3000 x46 + 3000 x47 + 3000 x48 + 3000 x49
 + 3500 x5 + 3000 x50 + 3000 x51 + 3000 x52 + 3000 x53 + 3000 x54 + 3000 x55
 + 3000 x56 + 3000 x57 + 3000 x58 + 8500 x59 + 3400 x6 + 5600 x60 + 5000 x61
 + 4900 x62 + 4700 x63 + 4500 x64 + 4200 x65 + 4000 x66 + 4000 x67 + 4000 x68
 + 3200 x69 + 3000 x7 + 3200 x70 + 3000 x71 + 3000 x72 + 3000 x73 + 3000 x74
 + 3000 x75 + 3000 x76 + 3000 x77 + 3000 x78 + 3000 x79 + 3000 x8 + 3000 x80
 + 3000 x81 + 3000 x82 + 3000 x83 + 3000 x84 + 3000 x85 + 3000 x86 + 3000 x87
 + 3000 x88 + 3000 x89 + 10900 x9 + 8400 x90 + 6600 x91 + 6500 x92 + 6000 x93
 + 5800 x94 + 5700 x95 + 5500 x96 + 5300 x97 + 5100 x98 + 4600 x99 <= 50000
_C10: x10 + x11 + x12 + x128 + x129 + x13 + x130 + x131 + x132 + x133 + x134
 + x135 + x136 + x137 + x138 + x139 + x14 + x140 + x141 + x15 + x16 + x17
 + x18 + x19 + x59 + x60 + x61 + x62 + x63 + x64 + x65 + x66 + x67 + x68 + x69
 + x70 + x71 + x72 + x73 + x74 + x75 + x76 + x77 + x78 + x79 + x80 + x81 + x82
 + x83 + x84 + x85 + x86 + x87 + x88 + x89 + x9 >= 1
_C11: x10 + x100 + x101 + x102 + x103 + x104 + x105 + x106 + x107 + x108
 + x109 + x11 + x110 + x111 + x112 + x113 + x114 + x115 + x116 + x117 + x118
 + x119 + x12 + x120 + x121 + x122 + x123 + x124 + x125 + x126 + x127 + x13
 + x14 + x15 + x16 + x17 + x18 + x19 + x9 + x90 + x91 + x92 + x93 + x94 + x95
 + x96 + x97 + x98 + x99 <= 2
_C12: x10 + x100 + x101 + x102 + x103 + x104 + x105 + x106 + x107 + x108
 + x109 + x11 + x110 + x111 + x112 + x113 + x114 + x115 + x116 + x117 + x118
 + x119 + x12 + x120 + x121 + x122 + x123 + x124 + x125 + x126 + x127 + x13
 + x14 + x15 + x16 + x17 + x18 + x19 + x9 + x90 + x91 + x92 + x93 + x94 + x95
 + x96 + x97 + x98 + x99 >= 1
_C2: x0 + x1 + x10 + x100 + x101 + x102 + x103 + x104 + x105 + x106 + x107
 + x108 + x109 + x11 + x110 + x111 + x112 + x113 + x114 + x115 + x116 + x117
 + x118 + x119 + x12 + x120 + x121 + x122 + x123 + x124 + x125 + x126 + x127
 + x128 + x129 + x13 + x130 + x131 + x132 + x133 + x134 + x135 + x136 + x137
 + x138 + x139 + x14 + x140 + x141 + x142 + x143 + x144 + x145 + x146 + x147
 + x148 + x149 + x15 + x150 + x151 + x152 + x153 + x154 + x155 + x156 + x157
 + x158 + x159 + x16 + x160 + x161 + x162 + x163 + x164 + x165 + x166 + x167
 + x168 + x169 + x17 + x170 + x171 + x172 + x173 + x174 + x175 + x176 + x177
 + x178 + x179 + x18 + x180 + x181 + x182 + x183 + x184 + x185 + x186 + x187
 + x188 + x189 + x19 + x190 + x191 + x192 + x193 + x194 + x195 + x196 + x197
 + x198 + x199 + x2 + x20 + x200 + x201 + x202 + x203 + x204 + x205 + x206
 + x207 + x208 + x21 + x22 + x23 + x24 + x25 + x26 + x27 + x28 + x29 + x3
 + x30 + x31 + x32 + x33 + x34 + x35 + x36 + x37 + x38 + x39 + x4 + x40 + x41
 + x42 + x43 + x44 + x45 + x46 + x47 + x48 + x49 + x5 + x50 + x51 + x52 + x53
 + x54 + x55 + x56 + x57 + x58 + x59 + x6 + x60 + x61 + x62 + x63 + x64 + x65
 + x66 + x67 + x68 + x69 + x7 + x70 + x71 + x72 + x73 + x74 + x75 + x76 + x77
 + x78 + x79 + x8 + x80 + x81 + x82 + x83 + x84 + x85 + x86 + x87 + x88 + x89
 + x9 + x90 + x91 + x92 + x93 + x94 + x95 + x96 + x97 + x98 + x99 = 8
_C3: x0 + x1 + x2 + x20 + x21 + x22 + x23 + x24 + x25 + x26 + x27 + x28 + x29
 + x3 + x30 + x31 + x32 + x33 + x34 + x35 + x36 + x37 + x38 + x39 + x4 + x40
 + x41 + x42 + x43 + x44 + x45 + x46 + x47 + x48 + x49 + x5 + x50 + x51 + x52
 + x53 + x54 + x55 + x56 + x57 + x58 + x6 + x7 + x8 <= 3
_C4: x0 + x1 + x2 + x20 + x21 + x22 + x23 + x24 + x25 + x26 + x27 + x28 + x29
 + x3 + x30 + x31 + x32 + x33 + x34 + x35 + x36 + x37 + x38 + x39 + x4 + x40
 + x41 + x42 + x43 + x44 + x45 + x46 + x47 + x48 + x49 + x5 + x50 + x51 + x52
 + x53 + x54 + x55 + x56 + x57 + x58 + x6 + x7 + x8 >= 1
_C5: x0 + x1 + x142 + x143 + x144 + x145 + x146 + x147 + x148 + x149 + x150
 + x151 + x152 + x153 + x154 + x155 + x156 + x157 + x158 + x159 + x160 + x161
 + x162 + x163 + x164 + x165 + x166 + x167 + x168 + x169 + x170 + x171 + x172
 + x173 + x174 + x175 + x176 + x177 + x178 + x179 + x180 + x181 + x182 + x183
 + x184 + x2 + x3 + x4 + x5 + x6 + x7 + x8 <= 3
_C6: x0 + x1 + x142 + x143 + x144 + x145 + x146 + x147 + x148 + x149 + x150
 + x151 + x152 + x153 + x154 + x155 + x156 + x157 + x158 + x159 + x160 + x161
 + x162 + x163 + x164 + x165 + x166 + x167 + x168 + x169 + x170 + x171 + x172
 + x173 + x174 + x175 + x176 + x177 + x178 + x179 + x180 + x181 + x182 + x183
 + x184 + x2 + x3 + x4 + x5 + x6 + x7 + x8 >= 1
_C7: x128 + x129 + x130 + x131 + x132 + x133 + x134 + x135 + x136 + x137
 + x138 + x139 + x140 + x141 + x170 + x171 + x172 + x173 + x174 + x175 + x176
 + x177 + x178 + x179 + x180 + x181 + x182 + x183 + x184 + x185 + x186 + x187
 + x188 + x189 + x190 + x191 + x192 + x193 + x194 + x195 + x196 + x197 + x198
 + x199 + x200 + x201 + x202 + x203 + x204 + x205 + x206 + x207 + x208 <= 3
_C8: x128 + x129 + x130 + x131 + x132 + x133 + x134 + x135 + x136 + x137
 + x138 + x139 + x140 + x141 + x170 + x171 + x172 + x173 + x174 + x175 + x176
 + x177 + x178 + x179 + x180 + x181 + x182 + x183 + x184 + x185 + x186 + x187
 + x188 + x189 + x190 + x191 + x192 + x193 + x194 + x195 + x196 + x197 + x198
 + x199 + x200 + x201 + x202 + x203 + x204 + x205 + x206 + x207 + x208 >= 1
_C9: x10 + x11 + x12 + x128 + x129 + x13 + x130 + x131 + x132 + x133 + x134
 + x135 + x136 + x137 + x138 + x139 + x14 + x140 + x141 + x15 + x16 + x17
 + x18 + x19 + x59 + x60 + x61 + x62 + x63 + x64 + x65 + x66 + x67 + x68 + x69
 + x70 + x71 + x72 + x73 + x74 + x75 + x76 + x77 + x78 + x79 + x80 + x81 + x82
 + x83 + x84 + x85 + x86 + x87 + x88 + x89 + x9 <= 3
Binaries
x0
x1
x10
x100
x101
x102
x103
x104
x105
x106
x107
x108
x109
x11
x110
x111
x112
x113
x114
x115
x116
x117
x118
x119
x12
x120
x121
x122
x123
x124
x125
x126
x127
x128
x129
x13
x130
x131
x132
x133
x134
x135
x136
x137
x138
x139
x14
x140
x141
x142
x143
x144
x145
x146
x147
x148
x149
x15
x150
x151
x152
x153
x154
x155
x156
x157
x158
x159
x16
x160
x161
x162
x163
x164
x165
x166
x167
x168
x169
x17
x170
x171
x172
x173
x174
x175
x176
x177
x178
x179
x18
x180
x181
x182
x183
x184
x185
x186
x187
x188
x189
x19
x190
x191
x192
x193
x194
x195
x196
x197
x198
x199
x2
x20
x200
x201
x202
x203
x204
x205
x206
x207
x208
x21
x22
x23
x24
x25
x26
x27
x28
x29
x3
x30
x31
x32
x33
x34
x35
x36
x37
x38
x39
x4
x40
x41
x42
x43
x44
x45
x46
x47
x48
x49
x5
x50
x51
x52
x53
x54
x55
x56
x57
x58
x59
x6
x60
x61
x62
x63
x64
x65
x66
x67
x68
x69
x7
x70
x71
x72
x73
x74
x75
x76
x77
x78
x79
x8
x80
x81
x82
x83
x84
x85
x86
x87
x88
x89
x9
x90
x91
x92
x93
x94
x95
x96
x97
x98
x99
End
